/*********************************************
 * OPL Data
 * Optimal Mix: data for wine instance
 *********************************************/

I = { "grape1","grapes2","grapes3","grapes4"};
J = { "wine1", "wine2" };
 
D = [100,200,50,150];

P = [21,10];

Q = [
 	[1.5 , 1.0 ],
 	[0.8 , 2.0 ],
 	[1.0 , 0.5 ],
 	[0.3 , 1.1 ]
];